NAME : 10_3_3_3_(17).dat
COMMENT : Henke, Speranza, Wäscher, 2015
TYPE : MCVRP
DIMENSION : 11
EDGE_WEIGHT_TYPE : DISTANCE_MATRIX
CAPACITY : 1000
VEHICLES : 2
PRODUCT TYPES : 3
COMPARTMENTS : 3
NODE_COORD_SECTION
1 50 50
2 79.87 6.62
3 40.07 5.32
4 79.65 15.89
5 34.12 93.17
6 95.13 16.34
7 1.66 87.2
8 38.88 13.64
9 10.34 79.23
10 61.54 60.21
11 98.45 70.07
DEMAND_SECTION
1 0 0 0
2 19 18 11
3 36 110 41
4 94 4 9
5 98 84 27
6 40 76 50
7 104 33 11
8 65 26 37
9 92 44 50
10 80 18 23
11 68 4 19
DEPOT_SECTION
1
EOF